p tw 20 53
0 1
0 4
0 12
0 13
0 17
0 10
0 15
0 11
0 9
1 7
1 11
1 14
1 6
1 2
2 3
2 15
2 10
2 11
2 19
3 10
3 12
4 5
4 12
4 11
4 19
4 16
5 6
5 13
5 15
6 7
6 12
6 18
6 13
7 19
7 9
8 9
8 14
9 12
9 15
10 16
10 14
10 15
10 11
10 13
11 17
11 12
11 16
12 19
13 16
14 18
15 18
16 17
18 19
